(set-logic QF_S)
(declare-fun var0 () Int)
(declare-fun var1 () Int)
(declare-fun var2 () String)
(declare-fun var3 () String)
(declare-fun var4 () Int)
(declare-fun var5 () Int)
(declare-fun var6 () String)
(declare-fun var7 () String)
(assert (not (< var0 var1)))
(assert (str.prefixof (str.at var2 84) (str.substr var3 179 var4)))
(assert (not (< var5 var1)))
(assert (> (str.to.int (str.++ var6 var7)) (str.to.int var7)))
(check-sat)